
Gurobi 11.0.3 (linux64) logging started Fri Nov 22 06:59:25 2024

Set parameter LogFile to value "/home/yihong/Coding/OR_SUC/SUC_results_bigM100000_thread4/case24_ieee_rts_theta0.1_epsilon0.05_gurobi_seed310000_num_gen100_N_WDR100_load_scaling_factor1_exact_T20quadra_cost.txt"
Set parameter TimeLimit to value 3600
Gurobi Optimizer version 11.0.3 build v11.0.3rc0 (linux64 - "Ubuntu 20.04.6 LTS")

CPU model: AMD EPYC 7532 32-Core Processor, instruction set [SSE2|AVX|AVX2]
Thread count: 64 physical cores, 128 logical processors, using up to 4 threads

Optimize a model with 47983 rows, 25001 columns and 1104482 nonzeros
Model fingerprint: 0xb5a22744
Model has 2000 quadratic constraints
Variable types: 22901 continuous, 2100 integer (2100 binary)
Coefficient statistics:
  Matrix range     [3e-04, 1e+05]
  QMatrix range    [2e-03, 8e-03]
  QLMatrix range   [3e-01, 6e+01]
  Objective range  [1e+00, 1e+00]
  Bounds range     [1e+00, 1e+00]
  RHS range        [1e+00, 1e+05]
Presolve removed 39113 rows and 10565 columns
Presolve time: 0.33s
Presolved: 8870 rows, 14436 columns, 50249 nonzeros
Presolved model has 2000 quadratic constraint(s)
Variable types: 12342 continuous, 2094 integer (2094 binary)

Root relaxation: objective 2.697612e+04, 6900 iterations, 0.19 seconds (0.26 work units)

    Nodes    |    Current Node    |     Objective Bounds      |     Work
 Expl Unexpl |  Obj  Depth IntInf | Incumbent    BestBd   Gap | It/Node Time

     0     0 26976.1171    0   14          - 26976.1171      -     -    0s
     0     0 304359.239    0  617          - 304359.239      -     -    1s
     0     0 304574.821    0  617          - 304574.821      -     -    1s
     0     0 578793.580    0  596          - 578793.580      -     -    1s
     0     0 578900.398    0  426          - 578900.398      -     -    1s
     0     0 579733.513    0  298          - 579733.513      -     -    1s
     0     0 579801.152    0  306          - 579801.152      -     -    1s
     0     0 579868.179    0  293          - 579868.179      -     -    1s
     0     0 579869.079    0  293          - 579869.079      -     -    1s
     0     2 579869.298    0  293          - 579869.298      -     -    2s
H  498   309                    580423.10879 580088.168  0.06%  19.6    3s
*  498   309             136    580423.10879 580088.168  0.06%  19.6    3s

Cutting planes:
  Gomory: 16
  Implied bound: 371
  MIR: 129
  Flow cover: 202

Explored 597 nodes (29896 simplex iterations) in 4.34 seconds (5.41 work units)
Thread count was 4 (of 128 available processors)

Solution count 2: 580423 580423 

Optimal solution found (tolerance 1.00e-03)
Warning: max constraint violation (1.4859e-07) exceeds tolerance
Best objective 5.804231087921e+05, best bound 5.800888599931e+05, gap 0.0576%
